results_rootrelaxation/bin006_080_030.srr.sol
solution status: optimal solution found
objective value:                                    8
_var10_                                             1 	(obj:2)
_var41_                                             1 	(obj:1)
_var52_                                             1 	(obj:1)
_var53_                                             1 	(obj:2)
_var54_                                             1 	(obj:2)
