results_rootrelaxation/bin006_080_030.srr.log
SCIP version 8.0.3.5 [precision: 8 byte] [memory: block] [mode: optimized] [LP solver: Soplex 6.0.1.3] [GitHash: 438792519e]
Copyright (c) 2002-2023 Zuse Institute Berlin (ZIB)

External libraries: 
  Readline 8.1         GNU library for command line editing (gnu.org/s/readline)
  Soplex 6.0.1.3       Linear Programming Solver developed at Zuse Institute Berlin (soplex.zib.de) [GitHash: 713be0fe]
  CppAD 20180000.0     Algorithmic Differentiation of C++ algorithms developed by B. Bell (github.com/coin-or/CppAD)
  ZLIB 1.2.11          General purpose compression library by J. Gailly and M. Adler (zlib.net)
  bliss 0.77           Computing Graph Automorphism Groups by T. Junttila and P. Kaski (www.tcs.hut.fi/Software/bliss/)

user parameter file <scip.set> not found - using default parameters

srr/relaxation = TRUE

read problem <instances/bin006_080_030.srr>
============

Original problem: 
original problem has 0 variables (0 bin, 0 int, 0 impl, 0 cont) and 20 constraints

presolving:
presolving (1 rounds: 1 fast, 1 medium, 1 exhaustive):
 0 deleted vars, 0 deleted constraints, 0 added constraints, 0 tightened bounds, 0 added holes, 0 changed sides, 0 changed coefficients
 0 implications, 0 cliques
presolved problem has 0 variables (0 bin, 0 int, 0 impl, 0 cont) and 20 constraints
     20 constraints of type <linear>
Presolving Time: 0.00

 time | node  | left  |LP iter|LP it/n|mem/heur|mdpt |vars |cons |rows |cuts |sepa|confs|strbr|  dualbound   | primalbound  |  gap   | compl. 
  0.0s|     1 |     0 |     1 |     - |   580k |   0 |   1 |  20 |  20 |   0 |  0 |   0 |   0 |      --      |      --      |    Inf | unknown
r 0.0s|     1 |     0 |    38 |     - |simplero|   0 |  49 |  20 |  20 |   0 |  0 |   0 |   0 |      --      | 9.500000e+00 |    Inf | unknown
r 0.0s|     1 |     0 |    43 |     - |simplero|   0 |  54 |  20 |  20 |   0 |  0 |   0 |   0 |      --      | 8.500000e+00 |    Inf | unknown
r 0.0s|     1 |     0 |    46 |     - |simplero|   0 |  57 |  20 |  20 |   0 |  0 |   0 |   0 |      --      | 8.000000e+00 |    Inf | unknown
  0.0s|     1 |     0 |    46 |     - |   710k |   0 |  57 |  20 |  20 |   0 |  0 |   0 |   0 | 8.000000e+00 | 8.000000e+00 |   0.00%| unknown
  0.0s|     1 |     0 |    46 |     - |   710k |   0 |  57 |  20 |  20 |   0 |  0 |   0 |   0 | 8.000000e+00 | 8.000000e+00 |   0.00%| unknown

SCIP Status        : problem is solved [optimal solution found]
Solving Time (sec) : 0.00
Solving Nodes      : 1
Primal Bound       : +8.00000000000000e+00 (3 solutions)
Dual Bound         : +8.00000000000000e+00
Gap                : 0.00 %

written transformed problem to file <results_rootrelaxation/bin006_080_030.srr.lp>
written transformed problem to file <results_rootrelaxation/bin006_080_030.srr.cip>


SCIP version 8.0.3.5 [precision: 8 byte] [memory: block] [mode: optimized] [LP solver: Soplex 6.0.1.3] [GitHash: 438792519e]
Copyright (c) 2002-2023 Zuse Institute Berlin (ZIB)

External libraries: 
  Readline 8.1         GNU library for command line editing (gnu.org/s/readline)
  Soplex 6.0.1.3       Linear Programming Solver developed at Zuse Institute Berlin (soplex.zib.de) [GitHash: 713be0fe]
  CppAD 20180000.0     Algorithmic Differentiation of C++ algorithms developed by B. Bell (github.com/coin-or/CppAD)
  ZLIB 1.2.11          General purpose compression library by J. Gailly and M. Adler (zlib.net)
  bliss 0.77           Computing Graph Automorphism Groups by T. Junttila and P. Kaski (www.tcs.hut.fi/Software/bliss/)

user parameter file <scip.set> not found - using default parameters

srr/relaxation = TRUE

read problem <instances/bin006_080_030.srr>
============

Original problem: 
original problem has 0 variables (0 bin, 0 int, 0 impl, 0 cont) and 20 constraints

presolving:
presolving (1 rounds: 1 fast, 1 medium, 1 exhaustive):
 0 deleted vars, 0 deleted constraints, 0 added constraints, 0 tightened bounds, 0 added holes, 0 changed sides, 0 changed coefficients
 0 implications, 0 cliques
presolved problem has 0 variables (0 bin, 0 int, 0 impl, 0 cont) and 20 constraints
     20 constraints of type <linear>
Presolving Time: 0.00

 time | node  | left  |LP iter|LP it/n|mem/heur|mdpt |vars |cons |rows |cuts |sepa|confs|strbr|  dualbound   | primalbound  |  gap   | compl. 
  0.0s|     1 |     0 |     1 |     - |   580k |   0 |   1 |  20 |  20 |   0 |  0 |   0 |   0 |      --      |      --      |    Inf | unknown
r 0.0s|     1 |     0 |    38 |     - |simplero|   0 |  49 |  20 |  20 |   0 |  0 |   0 |   0 |      --      | 9.500000e+00 |    Inf | unknown
r 0.0s|     1 |     0 |    43 |     - |simplero|   0 |  54 |  20 |  20 |   0 |  0 |   0 |   0 |      --      | 8.500000e+00 |    Inf | unknown
r 0.0s|     1 |     0 |    46 |     - |simplero|   0 |  57 |  20 |  20 |   0 |  0 |   0 |   0 |      --      | 8.000000e+00 |    Inf | unknown
  0.0s|     1 |     0 |    46 |     - |   710k |   0 |  57 |  20 |  20 |   0 |  0 |   0 |   0 | 8.000000e+00 | 8.000000e+00 |   0.00%| unknown
  0.0s|     1 |     0 |    46 |     - |   710k |   0 |  57 |  20 |  20 |   0 |  0 |   0 |   0 | 8.000000e+00 | 8.000000e+00 |   0.00%| unknown

SCIP Status        : problem is solved [optimal solution found]
Solving Time (sec) : 0.00
Solving Nodes      : 1
Primal Bound       : +8.00000000000000e+00 (3 solutions)
Dual Bound         : +8.00000000000000e+00
Gap                : 0.00 %

written transformed problem to file <results_rootrelaxation/bin006_080_030.srr.lp>
written transformed problem to file <results_rootrelaxation/bin006_080_030.srr.cip>

written solution information to file <results_rootrelaxation/bin006_080_030.srr.sol>



